c WARNING: for repeatability, setting FPU to use double precision
d VARIABLES            75036        
d CONSTRAINTS          266336       
c ============================[ Problem Statistics ]=============================
c |                                                                             |
c |  Number of variables:         75036                                         |
c |  Number of clauses:          266336                                         |
c |  Parse time:                   0.04 s                                       |
c |                                                                             |
c ============================[ Search Statistics ]==============================
c | Conflicts |          ORIGINAL         |          LEARNT          | Progress |
c |           |    Vars  Clauses Literals |    Limit  Clauses Lit/Cl |          |
c ===============================================================================
c |       100 |   54967   214314   539497 |    78581       98      6 | 26.746 % |
c |       250 |   54967   214314   539497 |    86439      248      6 | 26.746 % |
c |       475 |   54967   214306   539477 |    95083      473      5 | 26.746 % |
c |       812 |   54967   214306   539477 |   104592      810     23 | 26.746 % |
c |      1318 |   54967   214306   539477 |   115051     1316     53 | 26.746 % |
c |      2077 |   54967   214306   539477 |   126556     2075     47 | 26.746 % |
c |      3216 |   54967   214306   539477 |   139212     3214     85 | 26.746 % |
c |      4924 |   54967   214306   539477 |   153133     4922     86 | 26.746 % |
c |      7486 |   54967   214306   539477 |   168447     7484     94 | 26.746 % |
c |     11330 |   54967   214306   539477 |   185291    11328    102 | 26.746 % |
c |     17096 |   54967   214306   539477 |   203820    17094    118 | 26.746 % |
c |     25745 |   54967   214306   539477 |   224203    25743    139 | 26.746 % |
c |     38719 |   54966   214302   539467 |   246623    38716    144 | 26.747 % |
c |     58180 |   54966   214302   539467 |   271285    58177    149 | 26.747 % |
c |     87372 |   54966   214302   539467 |   298414    87369    153 | 26.747 % |
c |    131161 |   54966   214302   539467 |   328255   131158    149 | 26.747 % |
c |    196845 |   54966   214302   539467 |   361081   196842    158 | 26.747 % |
c |    295371 |   54966   214302   539467 |   397189   295368    160 | 26.747 % |
c |    443160 |   54966   214302   539467 |   436908    47007    132 | 26.747 % |
c |    664843 |   54966   214302   539467 |   480599   268690    158 | 26.747 % |
c |    997368 |   54966   214302   539467 |   528659   131656    213 | 26.747 % |
c |   1496156 |   54966   214302   539467 |   581524   116825    125 | 26.747 % |
c |   2244338 |   54966   214302   539467 |   639677   293660    115 | 26.747 % |
c |   3366612 |   54966   214302   539467 |   703645   156234    141 | 26.747 % |
c ===============================================================================
c restarts              : 7203
c conflicts             : 4111572        (2299 /sec)
c decisions             : 8325542        (0.00 % random) (4655 /sec)
c propagations          : 4483375710     (2507016 /sec)
c conflict literals     : 605979254      (38.80 % deleted)
d RESTARTS             7203
d FAILURES             4111572      
d NODES                8325542      
d BACKTRACKS           8325542      
d PROPAGATIONS         4483375710   
d NOGOODSIZE           147.38 
d MEMORY               705.00 
d TIME                 1788.33 

s UNKNOWN
